letting numberLocations be  45
letting costs be function (
(0,0) --> 0,
(0,1) --> 71,
(0,2) --> 54,
(0,3) --> 38,
(0,4) --> 31,
(0,5) --> 24,
(0,6) --> 21,
(0,7) --> 47,
(0,8) --> 40,
(0,9) --> 8,
(0,10) --> 57,
(0,11) --> 38,
(0,12) --> 54,
(0,13) --> 31,
(0,14) --> 17,
(0,15) --> 53,
(0,16) --> 66,
(0,17) --> 26,
(0,18) --> 90,
(0,19) --> 35,
(0,20) --> 53,
(0,21) --> 47,
(0,22) --> 40,
(0,23) --> 6,
(0,24) --> 68,
(0,25) --> 74,
(0,26) --> 26,
(0,27) --> 64,
(0,28) --> 20,
(0,29) --> 64,
(0,30) --> 33,
(0,31) --> 66,
(0,32) --> 29,
(0,33) --> 48,
(0,34) --> 75,
(0,35) --> 70,
(0,36) --> 21,
(0,37) --> 55,
(0,38) --> 16,
(0,39) --> 38,
(0,40) --> 80,
(0,41) --> 53,
(0,42) --> 59,
(0,43) --> 21,
(0,44) --> 74,
(0,45) --> 23,
(1,0) --> 71,
(1,1) --> 0,
(1,2) --> 102,
(1,3) --> 67,
(1,4) --> 89,
(1,5) --> 64,
(1,6) --> 91,
(1,7) --> 65,
(1,8) --> 36,
(1,9) --> 71,
(1,10) --> 69,
(1,11) --> 38,
(1,12) --> 48,
(1,13) --> 98,
(1,14) --> 86,
(1,15) --> 19,
(1,16) --> 24,
(1,17) --> 66,
(1,18) --> 74,
(1,19) --> 37,
(1,20) --> 23,
(1,21) --> 48,
(1,22) --> 65,
(1,23) --> 77,
(1,24) --> 24,
(1,25) --> 71,
(1,26) --> 93,
(1,27) --> 12,
(1,28) --> 54,
(1,29) --> 30,
(1,30) --> 92,
(1,31) --> 23,
(1,32) --> 68,
(1,33) --> 30,
(1,34) --> 16,
(1,35) --> 48,
(1,36) --> 62,
(1,37) --> 95,
(1,38) --> 79,
(1,39) --> 61,
(1,40) --> 15,
(1,41) --> 29,
(1,42) --> 32,
(1,43) --> 91,
(1,44) --> 74,
(1,45) --> 91,
(2,0) --> 54,
(2,1) --> 102,
(2,2) --> 0,
(2,3) --> 35,
(2,4) --> 24,
(2,5) --> 40,
(2,6) --> 47,
(2,7) --> 39,
(2,8) --> 67,
(2,9) --> 62,
(2,10) --> 42,
(2,11) --> 64,
(2,12) --> 58,
(2,13) --> 35,
(2,14) --> 43,
(2,15) --> 84,
(2,16) --> 84,
(2,17) --> 80,
(2,18) --> 74,
(2,19) --> 70,
(2,20) --> 93,
(2,21) --> 98,
(2,22) --> 37,
(2,23) --> 52,
(2,24) --> 86,
(2,25) --> 56,
(2,26) --> 37,
(2,27) --> 100,
(2,28) --> 70,
(2,29) --> 108,
(2,30) --> 23,
(2,31) --> 108,
(2,32) --> 35,
(2,33) --> 72,
(2,34) --> 113,
(2,35) --> 71,
(2,36) --> 44,
(2,37) --> 10,
(2,38) --> 38,
(2,39) --> 41,
(2,40) --> 115,
(2,41) --> 97,
(2,42) --> 74,
(2,43) --> 42,
(2,44) --> 54,
(2,45) --> 63,
(3,0) --> 38,
(3,1) --> 67,
(3,2) --> 35,
(3,3) --> 0,
(3,4) --> 30,
(3,5) --> 14,
(3,6) --> 47,
(3,7) --> 9,
(3,8) --> 32,
(3,9) --> 46,
(3,10) --> 18,
(3,11) --> 30,
(3,12) --> 25,
(3,13) --> 44,
(3,14) --> 40,
(3,15) --> 49,
(3,16) --> 49,
(3,17) --> 60,
(3,18) --> 54,
(3,19) --> 37,
(3,20) --> 60,
(3,21) --> 70,
(3,22) --> 2,
(3,23) --> 41,
(3,24) --> 51,
(3,25) --> 36,
(3,26) --> 41,
(3,27) --> 66,
(3,28) --> 45,
(3,29) --> 76,
(3,30) --> 32,
(3,31) --> 74,
(3,32) --> 10,
(3,33) --> 37,
(3,34) --> 78,
(3,35) --> 40,
(3,36) --> 18,
(3,37) --> 29,
(3,38) --> 30,
(3,39) --> 6,
(3,40) --> 80,
(3,41) --> 65,
(3,42) --> 39,
(3,43) --> 43,
(3,44) --> 36,
(3,45) --> 58,
(4,0) --> 31,
(4,1) --> 89,
(4,2) --> 24,
(4,3) --> 30,
(4,4) --> 0,
(4,5) --> 25,
(4,6) --> 23,
(4,7) --> 38,
(4,8) --> 54,
(4,9) --> 38,
(4,10) --> 46,
(4,11) --> 51,
(4,12) --> 54,
(4,13) --> 15,
(4,14) --> 19,
(4,15) --> 70,
(4,16) --> 77,
(4,17) --> 57,
(4,18) --> 82,
(4,19) --> 54,
(4,20) --> 76,
(4,21) --> 76,
(4,22) --> 32,
(4,23) --> 28,
(4,24) --> 78,
(4,25) --> 63,
(4,26) --> 14,
(4,27) --> 85,
(4,28) --> 48,
(4,29) --> 90,
(4,30) --> 3,
(4,31) --> 91,
(4,32) --> 23,
(4,33) --> 61,
(4,34) --> 98,
(4,35) --> 70,
(4,36) --> 27,
(4,37) --> 28,
(4,38) --> 15,
(4,39) --> 34,
(4,40) --> 101,
(4,41) --> 78,
(4,42) --> 67,
(4,43) --> 19,
(4,44) --> 62,
(4,45) --> 39,
(5,0) --> 24,
(5,1) --> 64,
(5,2) --> 40,
(5,3) --> 14,
(5,4) --> 25,
(5,5) --> 0,
(5,6) --> 35,
(5,7) --> 23,
(5,8) --> 29,
(5,9) --> 32,
(5,10) --> 33,
(5,11) --> 26,
(5,12) --> 33,
(5,13) --> 36,
(5,14) --> 29,
(5,15) --> 46,
(5,16) --> 52,
(5,17) --> 46,
(5,18) --> 67,
(5,19) --> 30,
(5,20) --> 53,
(5,21) --> 59,
(5,22) --> 16,
(5,23) --> 27,
(5,24) --> 54,
(5,25) --> 50,
(5,26) --> 32,
(5,27) --> 61,
(5,28) --> 32,
(5,29) --> 68,
(5,30) --> 28,
(5,31) --> 68,
(5,32) --> 6,
(5,33) --> 36,
(5,34) --> 74,
(5,35) --> 49,
(5,36) --> 4,
(5,37) --> 37,
(5,38) --> 18,
(5,39) --> 14,
(5,40) --> 76,
(5,41) --> 56,
(5,42) --> 43,
(5,43) --> 32,
(5,44) --> 50,
(5,45) --> 45,
(6,0) --> 21,
(6,1) --> 91,
(6,2) --> 47,
(6,3) --> 47,
(6,4) --> 23,
(6,5) --> 35,
(6,6) --> 0,
(6,7) --> 55,
(6,8) --> 59,
(6,9) --> 24,
(6,10) --> 64,
(6,11) --> 56,
(6,12) --> 67,
(6,13) --> 14,
(6,14) --> 6,
(6,15) --> 73,
(6,16) --> 84,
(6,17) --> 41,
(6,18) --> 100,
(6,19) --> 54,
(6,20) --> 73,
(6,21) --> 65,
(6,22) --> 48,
(6,23) --> 14,
(6,24) --> 86,
(6,25) --> 82,
(6,26) --> 10,
(6,27) --> 84,
(6,28) --> 40,
(6,29) --> 84,
(6,30) --> 24,
(6,31) --> 87,
(6,32) --> 37,
(6,33) --> 66,
(6,34) --> 96,
(6,35) --> 84,
(6,36) --> 34,
(6,37) --> 51,
(6,38) --> 17,
(6,39) --> 49,
(6,40) --> 100,
(6,41) --> 73,
(6,42) --> 76,
(6,43) --> 4,
(6,44) --> 82,
(6,45) --> 16,
(7,0) --> 47,
(7,1) --> 65,
(7,2) --> 39,
(7,3) --> 9,
(7,4) --> 38,
(7,5) --> 23,
(7,6) --> 55,
(7,7) --> 0,
(7,8) --> 33,
(7,9) --> 54,
(7,10) --> 10,
(7,11) --> 31,
(7,12) --> 19,
(7,13) --> 53,
(7,14) --> 49,
(7,15) --> 48,
(7,16) --> 45,
(7,17) --> 67,
(7,18) --> 45,
(7,19) --> 40,
(7,20) --> 62,
(7,21) --> 74,
(7,22) --> 7,
(7,23) --> 50,
(7,24) --> 47,
(7,25) --> 27,
(7,26) --> 50,
(7,27) --> 65,
(7,28) --> 51,
(7,29) --> 78,
(7,30) --> 40,
(7,31) --> 75,
(7,32) --> 19,
(7,33) --> 36,
(7,34) --> 78,
(7,35) --> 33,
(7,36) --> 26,
(7,37) --> 31,
(7,38) --> 38,
(7,39) --> 9,
(7,40) --> 79,
(7,41) --> 67,
(7,42) --> 35,
(7,43) --> 52,
(7,44) --> 27,
(7,45) --> 67,
(8,0) --> 40,
(8,1) --> 36,
(8,2) --> 67,
(8,3) --> 32,
(8,4) --> 54,
(8,5) --> 29,
(8,6) --> 59,
(8,7) --> 33,
(8,8) --> 0,
(8,9) --> 43,
(8,10) --> 40,
(8,11) --> 3,
(8,12) --> 23,
(8,13) --> 64,
(8,14) --> 53,
(8,15) --> 17,
(8,16) --> 26,
(8,17) --> 47,
(8,18) --> 61,
(8,19) --> 10,
(8,20) --> 29,
(8,21) --> 45,
(8,22) --> 31,
(8,23) --> 46,
(8,24) --> 28,
(8,25) --> 50,
(8,26) --> 59,
(8,27) --> 33,
(8,28) --> 31,
(8,29) --> 45,
(8,30) --> 57,
(8,31) --> 42,
(8,32) --> 33,
(8,33) --> 8,
(8,34) --> 46,
(8,35) --> 35,
(8,36) --> 27,
(8,37) --> 61,
(8,38) --> 44,
(8,39) --> 27,
(8,40) --> 48,
(8,41) --> 34,
(8,42) --> 20,
(8,43) --> 57,
(8,44) --> 51,
(8,45) --> 63,
(9,0) --> 8,
(9,1) --> 71,
(9,2) --> 62,
(9,3) --> 46,
(9,4) --> 38,
(9,5) --> 32,
(9,6) --> 24,
(9,7) --> 54,
(9,8) --> 43,
(9,9) --> 0,
(9,10) --> 64,
(9,11) --> 42,
(9,12) --> 59,
(9,13) --> 37,
(9,14) --> 22,
(9,15) --> 54,
(9,16) --> 69,
(9,17) --> 18,
(9,18) --> 97,
(9,19) --> 36,
(9,20) --> 51,
(9,21) --> 41,
(9,22) --> 47,
(9,23) --> 11,
(9,24) --> 71,
(9,25) --> 81,
(9,26) --> 31,
(9,27) --> 63,
(9,28) --> 17,
(9,29) --> 60,
(9,30) --> 40,
(9,31) --> 64,
(9,32) --> 37,
(9,33) --> 51,
(9,34) --> 74,
(9,35) --> 75,
(9,36) --> 28,
(9,37) --> 63,
(9,38) --> 24,
(9,39) --> 45,
(9,40) --> 78,
(9,41) --> 50,
(9,42) --> 63,
(9,43) --> 26,
(9,44) --> 81,
(9,45) --> 20,
(10,0) --> 57,
(10,1) --> 69,
(10,2) --> 42,
(10,3) --> 18,
(10,4) --> 46,
(10,5) --> 33,
(10,6) --> 64,
(10,7) --> 10,
(10,8) --> 40,
(10,9) --> 64,
(10,10) --> 0,
(10,11) --> 38,
(10,12) --> 21,
(10,13) --> 61,
(10,14) --> 58,
(10,15) --> 54,
(10,16) --> 47,
(10,17) --> 77,
(10,18) --> 36,
(10,19) --> 48,
(10,20) --> 68,
(10,21) --> 83,
(10,22) --> 17,
(10,23) --> 59,
(10,24) --> 48,
(10,25) --> 18,
(10,26) --> 58,
(10,27) --> 71,
(10,28) --> 61,
(10,29) --> 85,
(10,30) --> 47,
(10,31) --> 82,
(10,32) --> 28,
(10,33) --> 41,
(10,34) --> 83,
(10,35) --> 30,
(10,36) --> 36,
(10,37) --> 32,
(10,38) --> 48,
(10,39) --> 19,
(10,40) --> 83,
(10,41) --> 74,
(10,42) --> 38,
(10,43) --> 61,
(10,44) --> 17,
(10,45) --> 77,
(11,0) --> 38,
(11,1) --> 38,
(11,2) --> 64,
(11,3) --> 30,
(11,4) --> 51,
(11,5) --> 26,
(11,6) --> 56,
(11,7) --> 31,
(11,8) --> 3,
(11,9) --> 42,
(11,10) --> 38,
(11,11) --> 0,
(11,12) --> 22,
(11,13) --> 61,
(11,14) --> 51,
(11,15) --> 20,
(11,16) --> 28,
(11,17) --> 47,
(11,18) --> 60,
(11,19) --> 11,
(11,20) --> 31,
(11,21) --> 46,
(11,22) --> 29,
(11,23) --> 44,
(11,24) --> 30,
(11,25) --> 49,
(11,26) --> 56,
(11,27) --> 36,
(11,28) --> 30,
(11,29) --> 47,
(11,30) --> 54,
(11,31) --> 45,
(11,32) --> 30,
(11,33) --> 10,
(11,34) --> 49,
(11,35) --> 35,
(11,36) --> 24,
(11,37) --> 58,
(11,38) --> 42,
(11,39) --> 24,
(11,40) --> 51,
(11,41) --> 36,
(11,42) --> 21,
(11,43) --> 55,
(11,44) --> 50,
(11,45) --> 61,
(12,0) --> 54,
(12,1) --> 48,
(12,2) --> 58,
(12,3) --> 25,
(12,4) --> 54,
(12,5) --> 33,
(12,6) --> 67,
(12,7) --> 19,
(12,8) --> 23,
(12,9) --> 59,
(12,10) --> 21,
(12,11) --> 22,
(12,12) --> 0,
(12,13) --> 68,
(12,14) --> 61,
(12,15) --> 34,
(12,16) --> 27,
(12,17) --> 68,
(12,18) --> 38,
(12,19) --> 33,
(12,20) --> 50,
(12,21) --> 68,
(12,22) --> 23,
(12,23) --> 58,
(12,24) --> 28,
(12,25) --> 27,
(12,26) --> 64,
(12,27) --> 51,
(12,28) --> 51,
(12,29) --> 66,
(12,30) --> 57,
(12,31) --> 62,
(12,32) --> 32,
(12,33) --> 22,
(12,34) --> 63,
(12,35) --> 16,
(12,36) --> 34,
(12,37) --> 50,
(12,38) --> 51,
(12,39) --> 20,
(12,40) --> 63,
(12,41) --> 56,
(12,42) --> 17,
(12,43) --> 65,
(12,44) --> 28,
(12,45) --> 76,
(13,0) --> 31,
(13,1) --> 98,
(13,2) --> 35,
(13,3) --> 44,
(13,4) --> 15,
(13,5) --> 36,
(13,6) --> 14,
(13,7) --> 53,
(13,8) --> 64,
(13,9) --> 37,
(13,10) --> 61,
(13,11) --> 61,
(13,12) --> 68,
(13,13) --> 0,
(13,14) --> 14,
(13,15) --> 80,
(13,16) --> 88,
(13,17) --> 55,
(13,18) --> 97,
(13,19) --> 62,
(13,20) --> 83,
(13,21) --> 78,
(13,22) --> 46,
(13,23) --> 26,
(13,24) --> 90,
(13,25) --> 78,
(13,26) --> 6,
(13,27) --> 93,
(13,28) --> 51,
(13,29) --> 95,
(13,30) --> 14,
(13,31) --> 97,
(13,32) --> 36,
(13,33) --> 71,
(13,34) --> 105,
(13,35) --> 84,
(13,36) --> 37,
(13,37) --> 41,
(13,38) --> 20,
(13,39) --> 48,
(13,40) --> 109,
(13,41) --> 84,
(13,42) --> 79,
(13,43) --> 11,
(13,44) --> 77,
(13,45) --> 30,
(14,0) --> 17,
(14,1) --> 86,
(14,2) --> 43,
(14,3) --> 40,
(14,4) --> 19,
(14,5) --> 29,
(14,6) --> 6,
(14,7) --> 49,
(14,8) --> 53,
(14,9) --> 22,
(14,10) --> 58,
(14,11) --> 51,
(14,12) --> 61,
(14,13) --> 14,
(14,14) --> 0,
(14,15) --> 68,
(14,16) --> 78,
(14,17) --> 40,
(14,18) --> 94,
(14,19) --> 49,
(14,20) --> 69,
(14,21) --> 63,
(14,22) --> 42,
(14,23) --> 12,
(14,24) --> 80,
(14,25) --> 76,
(14,26) --> 9,
(14,27) --> 80,
(14,28) --> 37,
(14,29) --> 81,
(14,30) --> 20,
(14,31) --> 83,
(14,32) --> 30,
(14,33) --> 61,
(14,34) --> 92,
(14,35) --> 78,
(14,36) --> 28,
(14,37) --> 47,
(14,38) --> 11,
(14,39) --> 42,
(14,40) --> 96,
(14,41) --> 70,
(14,42) --> 70,
(14,43) --> 4,
(14,44) --> 75,
(14,45) --> 21,
(15,0) --> 53,
(15,1) --> 19,
(15,2) --> 84,
(15,3) --> 49,
(15,4) --> 70,
(15,5) --> 46,
(15,6) --> 73,
(15,7) --> 48,
(15,8) --> 17,
(15,9) --> 54,
(15,10) --> 54,
(15,11) --> 20,
(15,12) --> 34,
(15,13) --> 80,
(15,14) --> 68,
(15,15) --> 0,
(15,16) --> 20,
(15,17) --> 52,
(15,18) --> 67,
(15,19) --> 18,
(15,20) --> 17,
(15,21) --> 41,
(15,22) --> 48,
(15,23) --> 59,
(15,24) --> 21,
(15,25) --> 60,
(15,26) --> 74,
(15,27) --> 17,
(15,28) --> 38,
(15,29) --> 32,
(15,30) --> 73,
(15,31) --> 28,
(15,32) --> 50,
(15,33) --> 13,
(15,34) --> 30,
(15,35) --> 40,
(15,36) --> 43,
(15,37) --> 78,
(15,38) --> 60,
(15,39) --> 43,
(15,40) --> 31,
(15,41) --> 24,
(15,42) --> 21,
(15,43) --> 72,
(15,44) --> 62,
(15,45) --> 74,
(16,0) --> 66,
(16,1) --> 24,
(16,2) --> 84,
(16,3) --> 49,
(16,4) --> 77,
(16,5) --> 52,
(16,6) --> 84,
(16,7) --> 45,
(16,8) --> 26,
(16,9) --> 69,
(16,10) --> 47,
(16,11) --> 28,
(16,12) --> 27,
(16,13) --> 88,
(16,14) --> 78,
(16,15) --> 20,
(16,16) --> 0,
(16,17) --> 71,
(16,18) --> 50,
(16,19) --> 34,
(16,20) --> 36,
(16,21) --> 61,
(16,22) --> 48,
(16,23) --> 72,
(16,24) --> 2,
(16,25) --> 48,
(16,26) --> 84,
(16,27) --> 31,
(16,28) --> 55,
(16,29) --> 49,
(16,30) --> 79,
(16,31) --> 44,
(16,32) --> 54,
(16,33) --> 18,
(16,34) --> 40,
(16,35) --> 24,
(16,36) --> 51,
(16,37) --> 77,
(16,38) --> 69,
(16,39) --> 44,
(16,40) --> 38,
(16,41) --> 43,
(16,42) --> 10,
(16,43) --> 83,
(16,44) --> 50,
(16,45) --> 89,
(17,0) --> 26,
(17,1) --> 66,
(17,2) --> 80,
(17,3) --> 60,
(17,4) --> 57,
(17,5) --> 46,
(17,6) --> 41,
(17,7) --> 67,
(17,8) --> 47,
(17,9) --> 18,
(17,10) --> 77,
(17,11) --> 47,
(17,12) --> 68,
(17,13) --> 55,
(17,14) --> 40,
(17,15) --> 52,
(17,16) --> 71,
(17,17) --> 0,
(17,18) --> 106,
(17,19) --> 38,
(17,20) --> 44,
(17,21) --> 26,
(17,22) --> 61,
(17,23) --> 29,
(17,24) --> 72,
(17,25) --> 92,
(17,26) --> 49,
(17,27) --> 56,
(17,28) --> 17,
(17,29) --> 49,
(17,30) --> 59,
(17,31) --> 53,
(17,32) --> 52,
(17,33) --> 54,
(17,34) --> 65,
(17,35) --> 82,
(17,36) --> 42,
(17,37) --> 80,
(17,38) --> 42,
(17,39) --> 58,
(17,40) --> 70,
(17,41) --> 40,
(17,42) --> 67,
(17,43) --> 44,
(17,44) --> 93,
(17,45) --> 31,
(18,0) --> 90,
(18,1) --> 74,
(18,2) --> 74,
(18,3) --> 54,
(18,4) --> 82,
(18,5) --> 67,
(18,6) --> 100,
(18,7) --> 45,
(18,8) --> 61,
(18,9) --> 97,
(18,10) --> 36,
(18,11) --> 60,
(18,12) --> 38,
(18,13) --> 97,
(18,14) --> 94,
(18,15) --> 67,
(18,16) --> 50,
(18,17) --> 106,
(18,18) --> 0,
(18,19) --> 71,
(18,20) --> 84,
(18,21) --> 106,
(18,22) --> 52,
(18,23) --> 94,
(18,24) --> 50,
(18,25) --> 18,
(18,26) --> 94,
(18,27) --> 81,
(18,28) --> 89,
(18,29) --> 99,
(18,30) --> 83,
(18,31) --> 94,
(18,32) --> 64,
(18,33) --> 57,
(18,34) --> 90,
(18,35) --> 27,
(18,36) --> 69,
(18,37) --> 64,
(18,38) --> 83,
(18,39) --> 52,
(18,40) --> 88,
(18,41) --> 91,
(18,42) --> 46,
(18,43) --> 97,
(18,44) --> 20,
(18,45) --> 112,
(19,0) --> 35,
(19,1) --> 37,
(19,2) --> 70,
(19,3) --> 37,
(19,4) --> 54,
(19,5) --> 30,
(19,6) --> 54,
(19,7) --> 40,
(19,8) --> 10,
(19,9) --> 36,
(19,10) --> 48,
(19,11) --> 11,
(19,12) --> 33,
(19,13) --> 62,
(19,14) --> 49,
(19,15) --> 18,
(19,16) --> 34,
(19,17) --> 38,
(19,18) --> 71,
(19,19) --> 0,
(19,20) --> 23,
(19,21) --> 35,
(19,22) --> 37,
(19,23) --> 41,
(19,24) --> 35,
(19,25) --> 59,
(19,26) --> 56,
(19,27) --> 31,
(19,28) --> 22,
(19,29) --> 39,
(19,30) --> 57,
(19,31) --> 38,
(19,32) --> 35,
(19,33) --> 16,
(19,34) --> 44,
(19,35) --> 45,
(19,36) --> 27,
(19,37) --> 65,
(19,38) --> 42,
(19,39) --> 33,
(19,40) --> 47,
(19,41) --> 27,
(19,42) --> 29,
(19,43) --> 54,
(19,44) --> 61,
(19,45) --> 56,
(20,0) --> 53,
(20,1) --> 23,
(20,2) --> 93,
(20,3) --> 60,
(20,4) --> 76,
(20,5) --> 53,
(20,6) --> 73,
(20,7) --> 62,
(20,8) --> 29,
(20,9) --> 51,
(20,10) --> 68,
(20,11) --> 31,
(20,12) --> 50,
(20,13) --> 83,
(20,14) --> 69,
(20,15) --> 17,
(20,16) --> 36,
(20,17) --> 44,
(20,18) --> 84,
(20,19) --> 23,
(20,20) --> 0,
(20,21) --> 26,
(20,22) --> 59,
(20,23) --> 59,
(20,24) --> 37,
(20,25) --> 76,
(20,26) --> 77,
(20,27) --> 12,
(20,28) --> 34,
(20,29) --> 16,
(20,30) --> 79,
(20,31) --> 14,
(20,32) --> 58,
(20,33) --> 28,
(20,34) --> 22,
(20,35) --> 57,
(20,36) --> 50,
(20,37) --> 89,
(20,38) --> 64,
(20,39) --> 55,
(20,40) --> 27,
(20,41) --> 7,
(20,42) --> 38,
(20,43) --> 74,
(20,44) --> 78,
(20,45) --> 71,
(21,0) --> 47,
(21,1) --> 48,
(21,2) --> 98,
(21,3) --> 70,
(21,4) --> 76,
(21,5) --> 59,
(21,6) --> 65,
(21,7) --> 74,
(21,8) --> 45,
(21,9) --> 41,
(21,10) --> 83,
(21,11) --> 46,
(21,12) --> 68,
(21,13) --> 78,
(21,14) --> 63,
(21,15) --> 41,
(21,16) --> 61,
(21,17) --> 26,
(21,18) --> 106,
(21,19) --> 35,
(21,20) --> 26,
(21,21) --> 0,
(21,22) --> 70,
(21,23) --> 52,
(21,24) --> 62,
(21,25) --> 95,
(21,26) --> 72,
(21,27) --> 37,
(21,28) --> 28,
(21,29) --> 24,
(21,30) --> 79,
(21,31) --> 30,
(21,32) --> 64,
(21,33) --> 48,
(21,34) --> 42,
(21,35) --> 79,
(21,36) --> 55,
(21,37) --> 95,
(21,38) --> 62,
(21,39) --> 66,
(21,40) --> 48,
(21,41) --> 20,
(21,42) --> 60,
(21,43) --> 67,
(21,44) --> 96,
(21,45) --> 57,
(22,0) --> 40,
(22,1) --> 65,
(22,2) --> 37,
(22,3) --> 2,
(22,4) --> 32,
(22,5) --> 16,
(22,6) --> 48,
(22,7) --> 7,
(22,8) --> 31,
(22,9) --> 47,
(22,10) --> 17,
(22,11) --> 29,
(22,12) --> 23,
(22,13) --> 46,
(22,14) --> 42,
(22,15) --> 48,
(22,16) --> 48,
(22,17) --> 61,
(22,18) --> 52,
(22,19) --> 37,
(22,20) --> 59,
(22,21) --> 70,
(22,22) --> 0,
(22,23) --> 43,
(22,24) --> 49,
(22,25) --> 34,
(22,26) --> 43,
(22,27) --> 64,
(22,28) --> 46,
(22,29) --> 75,
(22,30) --> 34,
(22,31) --> 74,
(22,32) --> 12,
(22,33) --> 36,
(22,34) --> 77,
(22,35) --> 38,
(22,36) --> 19,
(22,37) --> 30,
(22,38) --> 31,
(22,39) --> 4,
(22,40) --> 79,
(22,41) --> 64,
(22,42) --> 38,
(22,43) --> 45,
(22,44) --> 34,
(22,45) --> 60,
(23,0) --> 6,
(23,1) --> 77,
(23,2) --> 52,
(23,3) --> 41,
(23,4) --> 28,
(23,5) --> 27,
(23,6) --> 14,
(23,7) --> 50,
(23,8) --> 46,
(23,9) --> 11,
(23,10) --> 59,
(23,11) --> 44,
(23,12) --> 58,
(23,13) --> 26,
(23,14) --> 12,
(23,15) --> 59,
(23,16) --> 72,
(23,17) --> 29,
(23,18) --> 94,
(23,19) --> 41,
(23,20) --> 59,
(23,21) --> 52,
(23,22) --> 43,
(23,23) --> 0,
(23,24) --> 74,
(23,25) --> 77,
(23,26) --> 21,
(23,27) --> 70,
(23,28) --> 26,
(23,29) --> 70,
(23,30) --> 30,
(23,31) --> 72,
(23,32) --> 31,
(23,33) --> 54,
(23,34) --> 81,
(23,35) --> 75,
(23,36) --> 25,
(23,37) --> 54,
(23,38) --> 15,
(23,39) --> 42,
(23,40) --> 86,
(23,41) --> 59,
(23,42) --> 64,
(23,43) --> 16,
(23,44) --> 77,
(23,45) --> 18,
(24,0) --> 68,
(24,1) --> 24,
(24,2) --> 86,
(24,3) --> 51,
(24,4) --> 78,
(24,5) --> 54,
(24,6) --> 86,
(24,7) --> 47,
(24,8) --> 28,
(24,9) --> 71,
(24,10) --> 48,
(24,11) --> 30,
(24,12) --> 28,
(24,13) --> 90,
(24,14) --> 80,
(24,15) --> 21,
(24,16) --> 2,
(24,17) --> 72,
(24,18) --> 50,
(24,19) --> 35,
(24,20) --> 37,
(24,21) --> 62,
(24,22) --> 49,
(24,23) --> 74,
(24,24) --> 0,
(24,25) --> 48,
(24,26) --> 86,
(24,27) --> 32,
(24,28) --> 57,
(24,29) --> 50,
(24,30) --> 81,
(24,31) --> 44,
(24,32) --> 56,
(24,33) --> 20,
(24,34) --> 40,
(24,35) --> 24,
(24,36) --> 53,
(24,37) --> 78,
(24,38) --> 71,
(24,39) --> 46,
(24,40) --> 38,
(24,41) --> 44,
(24,42) --> 12,
(24,43) --> 85,
(24,44) --> 51,
(24,45) --> 91,
(25,0) --> 74,
(25,1) --> 71,
(25,2) --> 56,
(25,3) --> 36,
(25,4) --> 63,
(25,5) --> 50,
(25,6) --> 82,
(25,7) --> 27,
(25,8) --> 50,
(25,9) --> 81,
(25,10) --> 18,
(25,11) --> 49,
(25,12) --> 27,
(25,13) --> 78,
(25,14) --> 76,
(25,15) --> 60,
(25,16) --> 48,
(25,17) --> 92,
(25,18) --> 18,
(25,19) --> 59,
(25,20) --> 76,
(25,21) --> 95,
(25,22) --> 34,
(25,23) --> 77,
(25,24) --> 48,
(25,25) --> 0,
(25,26) --> 76,
(25,27) --> 76,
(25,28) --> 75,
(25,29) --> 92,
(25,30) --> 65,
(25,31) --> 88,
(25,32) --> 46,
(25,33) --> 48,
(25,34) --> 87,
(25,35) --> 24,
(25,36) --> 52,
(25,37) --> 46,
(25,38) --> 66,
(25,39) --> 35,
(25,40) --> 86,
(25,41) --> 83,
(25,42) --> 40,
(25,43) --> 79,
(25,44) --> 3,
(25,45) --> 94,
(26,0) --> 26,
(26,1) --> 93,
(26,2) --> 37,
(26,3) --> 41,
(26,4) --> 14,
(26,5) --> 32,
(26,6) --> 10,
(26,7) --> 50,
(26,8) --> 59,
(26,9) --> 31,
(26,10) --> 58,
(26,11) --> 56,
(26,12) --> 64,
(26,13) --> 6,
(26,14) --> 9,
(26,15) --> 74,
(26,16) --> 84,
(26,17) --> 49,
(26,18) --> 94,
(26,19) --> 56,
(26,20) --> 77,
(26,21) --> 72,
(26,22) --> 43,
(26,23) --> 21,
(26,24) --> 86,
(26,25) --> 76,
(26,26) --> 0,
(26,27) --> 87,
(26,28) --> 45,
(26,29) --> 89,
(26,30) --> 14,
(26,31) --> 91,
(26,32) --> 32,
(26,33) --> 66,
(26,34) --> 99,
(26,35) --> 80,
(26,36) --> 33,
(26,37) --> 42,
(26,38) --> 15,
(26,39) --> 44,
(26,40) --> 103,
(26,41) --> 78,
(26,42) --> 75,
(26,43) --> 6,
(26,44) --> 75,
(26,45) --> 27,
(27,0) --> 64,
(27,1) --> 12,
(27,2) --> 100,
(27,3) --> 66,
(27,4) --> 85,
(27,5) --> 61,
(27,6) --> 84,
(27,7) --> 65,
(27,8) --> 33,
(27,9) --> 63,
(27,10) --> 71,
(27,11) --> 36,
(27,12) --> 51,
(27,13) --> 93,
(27,14) --> 80,
(27,15) --> 17,
(27,16) --> 31,
(27,17) --> 56,
(27,18) --> 81,
(27,19) --> 31,
(27,20) --> 12,
(27,21) --> 37,
(27,22) --> 64,
(27,23) --> 70,
(27,24) --> 32,
(27,25) --> 76,
(27,26) --> 87,
(27,27) --> 0,
(27,28) --> 46,
(27,29) --> 19,
(27,30) --> 88,
(27,31) --> 13,
(27,32) --> 65,
(27,33) --> 30,
(27,34) --> 13,
(27,35) --> 54,
(27,36) --> 58,
(27,37) --> 94,
(27,38) --> 73,
(27,39) --> 60,
(27,40) --> 16,
(27,41) --> 17,
(27,42) --> 36,
(27,43) --> 84,
(27,44) --> 78,
(27,45) --> 82,
(28,0) --> 20,
(28,1) --> 54,
(28,2) --> 70,
(28,3) --> 45,
(28,4) --> 48,
(28,5) --> 32,
(28,6) --> 40,
(28,7) --> 51,
(28,8) --> 31,
(28,9) --> 17,
(28,10) --> 61,
(28,11) --> 30,
(28,12) --> 51,
(28,13) --> 51,
(28,14) --> 37,
(28,15) --> 38,
(28,16) --> 55,
(28,17) --> 17,
(28,18) --> 89,
(28,19) --> 22,
(28,20) --> 34,
(28,21) --> 28,
(28,22) --> 46,
(28,23) --> 26,
(28,24) --> 57,
(28,25) --> 75,
(28,26) --> 45,
(28,27) --> 46,
(28,28) --> 0,
(28,29) --> 44,
(28,30) --> 51,
(28,31) --> 47,
(28,32) --> 38,
(28,33) --> 38,
(28,34) --> 56,
(28,35) --> 65,
(28,36) --> 28,
(28,37) --> 68,
(28,38) --> 34,
(28,39) --> 42,
(28,40) --> 61,
(28,41) --> 33,
(28,42) --> 50,
(28,43) --> 41,
(28,44) --> 76,
(28,45) --> 37,
(29,0) --> 64,
(29,1) --> 30,
(29,2) --> 108,
(29,3) --> 76,
(29,4) --> 90,
(29,5) --> 68,
(29,6) --> 84,
(29,7) --> 78,
(29,8) --> 45,
(29,9) --> 60,
(29,10) --> 85,
(29,11) --> 47,
(29,12) --> 66,
(29,13) --> 95,
(29,14) --> 81,
(29,15) --> 32,
(29,16) --> 49,
(29,17) --> 49,
(29,18) --> 99,
(29,19) --> 39,
(29,20) --> 16,
(29,21) --> 24,
(29,22) --> 75,
(29,23) --> 70,
(29,24) --> 50,
(29,25) --> 92,
(29,26) --> 89,
(29,27) --> 19,
(29,28) --> 44,
(29,29) --> 0,
(29,30) --> 93,
(29,31) --> 7,
(29,32) --> 73,
(29,33) --> 44,
(29,34) --> 19,
(29,35) --> 72,
(29,36) --> 64,
(29,37) --> 104,
(29,38) --> 77,
(29,39) --> 71,
(29,40) --> 25,
(29,41) --> 12,
(29,42) --> 53,
(29,43) --> 85,
(29,44) --> 94,
(29,45) --> 79,
(30,0) --> 33,
(30,1) --> 92,
(30,2) --> 23,
(30,3) --> 32,
(30,4) --> 3,
(30,5) --> 28,
(30,6) --> 24,
(30,7) --> 40,
(30,8) --> 57,
(30,9) --> 40,
(30,10) --> 47,
(30,11) --> 54,
(30,12) --> 57,
(30,13) --> 14,
(30,14) --> 20,
(30,15) --> 73,
(30,16) --> 79,
(30,17) --> 59,
(30,18) --> 83,
(30,19) --> 57,
(30,20) --> 79,
(30,21) --> 79,
(30,22) --> 34,
(30,23) --> 30,
(30,24) --> 81,
(30,25) --> 65,
(30,26) --> 14,
(30,27) --> 88,
(30,28) --> 51,
(30,29) --> 93,
(30,30) --> 0,
(30,31) --> 94,
(30,32) --> 25,
(30,33) --> 64,
(30,34) --> 100,
(30,35) --> 72,
(30,36) --> 30,
(30,37) --> 27,
(30,38) --> 17,
(30,39) --> 36,
(30,40) --> 104,
(30,41) --> 81,
(30,42) --> 70,
(30,43) --> 20,
(30,44) --> 63,
(30,45) --> 40,
(31,0) --> 66,
(31,1) --> 23,
(31,2) --> 108,
(31,3) --> 74,
(31,4) --> 91,
(31,5) --> 68,
(31,6) --> 87,
(31,7) --> 75,
(31,8) --> 42,
(31,9) --> 64,
(31,10) --> 82,
(31,11) --> 45,
(31,12) --> 62,
(31,13) --> 97,
(31,14) --> 83,
(31,15) --> 28,
(31,16) --> 44,
(31,17) --> 53,
(31,18) --> 94,
(31,19) --> 38,
(31,20) --> 14,
(31,21) --> 30,
(31,22) --> 74,
(31,23) --> 72,
(31,24) --> 44,
(31,25) --> 88,
(31,26) --> 91,
(31,27) --> 13,
(31,28) --> 47,
(31,29) --> 7,
(31,30) --> 94,
(31,31) --> 0,
(31,32) --> 73,
(31,33) --> 40,
(31,34) --> 12,
(31,35) --> 67,
(31,36) --> 64,
(31,37) --> 103,
(31,38) --> 78,
(31,39) --> 69,
(31,40) --> 18,
(31,41) --> 13,
(31,42) --> 48,
(31,43) --> 87,
(31,44) --> 90,
(31,45) --> 82,
(32,0) --> 29,
(32,1) --> 68,
(32,2) --> 35,
(32,3) --> 10,
(32,4) --> 23,
(32,5) --> 6,
(32,6) --> 37,
(32,7) --> 19,
(32,8) --> 33,
(32,9) --> 37,
(32,10) --> 28,
(32,11) --> 30,
(32,12) --> 32,
(32,13) --> 36,
(32,14) --> 30,
(32,15) --> 50,
(32,16) --> 54,
(32,17) --> 52,
(32,18) --> 64,
(32,19) --> 35,
(32,20) --> 58,
(32,21) --> 64,
(32,22) --> 12,
(32,23) --> 31,
(32,24) --> 56,
(32,25) --> 46,
(32,26) --> 32,
(32,27) --> 65,
(32,28) --> 38,
(32,29) --> 73,
(32,30) --> 25,
(32,31) --> 73,
(32,32) --> 0,
(32,33) --> 39,
(32,34) --> 78,
(32,35) --> 48,
(32,36) --> 10,
(32,37) --> 31,
(32,38) --> 20,
(32,39) --> 12,
(32,40) --> 81,
(32,41) --> 62,
(32,42) --> 44,
(32,43) --> 34,
(32,44) --> 46,
(32,45) --> 48,
(33,0) --> 48,
(33,1) --> 30,
(33,2) --> 72,
(33,3) --> 37,
(33,4) --> 61,
(33,5) --> 36,
(33,6) --> 66,
(33,7) --> 36,
(33,8) --> 8,
(33,9) --> 51,
(33,10) --> 41,
(33,11) --> 10,
(33,12) --> 22,
(33,13) --> 71,
(33,14) --> 61,
(33,15) --> 13,
(33,16) --> 18,
(33,17) --> 54,
(33,18) --> 57,
(33,19) --> 16,
(33,20) --> 28,
(33,21) --> 48,
(33,22) --> 36,
(33,23) --> 54,
(33,24) --> 20,
(33,25) --> 48,
(33,26) --> 66,
(33,27) --> 30,
(33,28) --> 38,
(33,29) --> 44,
(33,30) --> 64,
(33,31) --> 40,
(33,32) --> 39,
(33,33) --> 0,
(33,34) --> 42,
(33,35) --> 31,
(33,36) --> 34,
(33,37) --> 66,
(33,38) --> 52,
(33,39) --> 31,
(33,40) --> 43,
(33,41) --> 35,
(33,42) --> 13,
(33,43) --> 65,
(33,44) --> 50,
(33,45) --> 70,
(34,0) --> 75,
(34,1) --> 16,
(34,2) --> 113,
(34,3) --> 78,
(34,4) --> 98,
(34,5) --> 74,
(34,6) --> 96,
(34,7) --> 78,
(34,8) --> 46,
(34,9) --> 74,
(34,10) --> 83,
(34,11) --> 49,
(34,12) --> 63,
(34,13) --> 105,
(34,14) --> 92,
(34,15) --> 30,
(34,16) --> 40,
(34,17) --> 65,
(34,18) --> 90,
(34,19) --> 44,
(34,20) --> 22,
(34,21) --> 42,
(34,22) --> 77,
(34,23) --> 81,
(34,24) --> 40,
(34,25) --> 87,
(34,26) --> 99,
(34,27) --> 13,
(34,28) --> 56,
(34,29) --> 19,
(34,30) --> 100,
(34,31) --> 12,
(34,32) --> 78,
(34,33) --> 42,
(34,34) --> 0,
(34,35) --> 64,
(34,36) --> 71,
(34,37) --> 107,
(34,38) --> 86,
(34,39) --> 73,
(34,40) --> 6,
(34,41) --> 24,
(34,42) --> 47,
(34,43) --> 96,
(34,44) --> 89,
(34,45) --> 93,
(35,0) --> 70,
(35,1) --> 48,
(35,2) --> 71,
(35,3) --> 40,
(35,4) --> 70,
(35,5) --> 49,
(35,6) --> 84,
(35,7) --> 33,
(35,8) --> 35,
(35,9) --> 75,
(35,10) --> 30,
(35,11) --> 35,
(35,12) --> 16,
(35,13) --> 84,
(35,14) --> 78,
(35,15) --> 40,
(35,16) --> 24,
(35,17) --> 82,
(35,18) --> 27,
(35,19) --> 45,
(35,20) --> 57,
(35,21) --> 79,
(35,22) --> 38,
(35,23) --> 75,
(35,24) --> 24,
(35,25) --> 24,
(35,26) --> 80,
(35,27) --> 54,
(35,28) --> 65,
(35,29) --> 72,
(35,30) --> 72,
(35,31) --> 67,
(35,32) --> 48,
(35,33) --> 31,
(35,34) --> 64,
(35,35) --> 0,
(35,36) --> 50,
(35,37) --> 62,
(35,38) --> 67,
(35,39) --> 36,
(35,40) --> 63,
(35,41) --> 64,
(35,42) --> 19,
(35,43) --> 81,
(35,44) --> 27,
(35,45) --> 92,
(36,0) --> 21,
(36,1) --> 62,
(36,2) --> 44,
(36,3) --> 18,
(36,4) --> 27,
(36,5) --> 4,
(36,6) --> 34,
(36,7) --> 26,
(36,8) --> 27,
(36,9) --> 28,
(36,10) --> 36,
(36,11) --> 24,
(36,12) --> 34,
(36,13) --> 37,
(36,14) --> 28,
(36,15) --> 43,
(36,16) --> 51,
(36,17) --> 42,
(36,18) --> 69,
(36,19) --> 27,
(36,20) --> 50,
(36,21) --> 55,
(36,22) --> 19,
(36,23) --> 25,
(36,24) --> 53,
(36,25) --> 52,
(36,26) --> 33,
(36,27) --> 58,
(36,28) --> 28,
(36,29) --> 64,
(36,30) --> 30,
(36,31) --> 64,
(36,32) --> 10,
(36,33) --> 34,
(36,34) --> 71,
(36,35) --> 50,
(36,36) --> 0,
(36,37) --> 41,
(36,38) --> 18,
(36,39) --> 17,
(36,40) --> 74,
(36,41) --> 53,
(36,42) --> 42,
(36,43) --> 32,
(36,44) --> 52,
(36,45) --> 43,
(37,0) --> 55,
(37,1) --> 95,
(37,2) --> 10,
(37,3) --> 29,
(37,4) --> 28,
(37,5) --> 37,
(37,6) --> 51,
(37,7) --> 31,
(37,8) --> 61,
(37,9) --> 63,
(37,10) --> 32,
(37,11) --> 58,
(37,12) --> 50,
(37,13) --> 41,
(37,14) --> 47,
(37,15) --> 78,
(37,16) --> 77,
(37,17) --> 80,
(37,18) --> 64,
(37,19) --> 65,
(37,20) --> 89,
(37,21) --> 95,
(37,22) --> 30,
(37,23) --> 54,
(37,24) --> 78,
(37,25) --> 46,
(37,26) --> 42,
(37,27) --> 94,
(37,28) --> 68,
(37,29) --> 104,
(37,30) --> 27,
(37,31) --> 103,
(37,32) --> 31,
(37,33) --> 66,
(37,34) --> 107,
(37,35) --> 62,
(37,36) --> 41,
(37,37) --> 0,
(37,38) --> 39,
(37,39) --> 34,
(37,40) --> 109,
(37,41) --> 92,
(37,42) --> 67,
(37,43) --> 47,
(37,44) --> 44,
(37,45) --> 67,
(38,0) --> 16,
(38,1) --> 79,
(38,2) --> 38,
(38,3) --> 30,
(38,4) --> 15,
(38,5) --> 18,
(38,6) --> 17,
(38,7) --> 38,
(38,8) --> 44,
(38,9) --> 24,
(38,10) --> 48,
(38,11) --> 42,
(38,12) --> 51,
(38,13) --> 20,
(38,14) --> 11,
(38,15) --> 60,
(38,16) --> 69,
(38,17) --> 42,
(38,18) --> 83,
(38,19) --> 42,
(38,20) --> 64,
(38,21) --> 62,
(38,22) --> 31,
(38,23) --> 15,
(38,24) --> 71,
(38,25) --> 66,
(38,26) --> 15,
(38,27) --> 73,
(38,28) --> 34,
(38,29) --> 77,
(38,30) --> 17,
(38,31) --> 78,
(38,32) --> 20,
(38,33) --> 52,
(38,34) --> 86,
(38,35) --> 67,
(38,36) --> 18,
(38,37) --> 39,
(38,38) --> 0,
(38,39) --> 32,
(38,40) --> 89,
(38,41) --> 65,
(38,42) --> 60,
(38,43) --> 14,
(38,44) --> 65,
(38,45) --> 30,
(39,0) --> 38,
(39,1) --> 61,
(39,2) --> 41,
(39,3) --> 6,
(39,4) --> 34,
(39,5) --> 14,
(39,6) --> 49,
(39,7) --> 9,
(39,8) --> 27,
(39,9) --> 45,
(39,10) --> 19,
(39,11) --> 24,
(39,12) --> 20,
(39,13) --> 48,
(39,14) --> 42,
(39,15) --> 43,
(39,16) --> 44,
(39,17) --> 58,
(39,18) --> 52,
(39,19) --> 33,
(39,20) --> 55,
(39,21) --> 66,
(39,22) --> 4,
(39,23) --> 42,
(39,24) --> 46,
(39,25) --> 35,
(39,26) --> 44,
(39,27) --> 60,
(39,28) --> 42,
(39,29) --> 71,
(39,30) --> 36,
(39,31) --> 69,
(39,32) --> 12,
(39,33) --> 31,
(39,34) --> 73,
(39,35) --> 36,
(39,36) --> 17,
(39,37) --> 34,
(39,38) --> 32,
(39,39) --> 0,
(39,40) --> 74,
(39,41) --> 60,
(39,42) --> 34,
(39,43) --> 46,
(39,44) --> 35,
(39,45) --> 59,
(40,0) --> 80,
(40,1) --> 15,
(40,2) --> 115,
(40,3) --> 80,
(40,4) --> 101,
(40,5) --> 76,
(40,6) --> 100,
(40,7) --> 79,
(40,8) --> 48,
(40,9) --> 78,
(40,10) --> 83,
(40,11) --> 51,
(40,12) --> 63,
(40,13) --> 109,
(40,14) --> 96,
(40,15) --> 31,
(40,16) --> 38,
(40,17) --> 70,
(40,18) --> 88,
(40,19) --> 47,
(40,20) --> 27,
(40,21) --> 48,
(40,22) --> 79,
(40,23) --> 86,
(40,24) --> 38,
(40,25) --> 86,
(40,26) --> 103,
(40,27) --> 16,
(40,28) --> 61,
(40,29) --> 25,
(40,30) --> 104,
(40,31) --> 18,
(40,32) --> 81,
(40,33) --> 43,
(40,34) --> 6,
(40,35) --> 63,
(40,36) --> 74,
(40,37) --> 109,
(40,38) --> 89,
(40,39) --> 74,
(40,40) --> 0,
(40,41) --> 30,
(40,42) --> 46,
(40,43) --> 100,
(40,44) --> 88,
(40,45) --> 98,
(41,0) --> 53,
(41,1) --> 29,
(41,2) --> 97,
(41,3) --> 65,
(41,4) --> 78,
(41,5) --> 56,
(41,6) --> 73,
(41,7) --> 67,
(41,8) --> 34,
(41,9) --> 50,
(41,10) --> 74,
(41,11) --> 36,
(41,12) --> 56,
(41,13) --> 84,
(41,14) --> 70,
(41,15) --> 24,
(41,16) --> 43,
(41,17) --> 40,
(41,18) --> 91,
(41,19) --> 27,
(41,20) --> 7,
(41,21) --> 20,
(41,22) --> 64,
(41,23) --> 59,
(41,24) --> 44,
(41,25) --> 83,
(41,26) --> 78,
(41,27) --> 17,
(41,28) --> 33,
(41,29) --> 12,
(41,30) --> 81,
(41,31) --> 13,
(41,32) --> 62,
(41,33) --> 35,
(41,34) --> 24,
(41,35) --> 64,
(41,36) --> 53,
(41,37) --> 92,
(41,38) --> 65,
(41,39) --> 60,
(41,40) --> 30,
(41,41) --> 0,
(41,42) --> 45,
(41,43) --> 74,
(41,44) --> 85,
(41,45) --> 69,
(42,0) --> 59,
(42,1) --> 32,
(42,2) --> 74,
(42,3) --> 39,
(42,4) --> 67,
(42,5) --> 43,
(42,6) --> 76,
(42,7) --> 35,
(42,8) --> 20,
(42,9) --> 63,
(42,10) --> 38,
(42,11) --> 21,
(42,12) --> 17,
(42,13) --> 79,
(42,14) --> 70,
(42,15) --> 21,
(42,16) --> 10,
(42,17) --> 67,
(42,18) --> 46,
(42,19) --> 29,
(42,20) --> 38,
(42,21) --> 60,
(42,22) --> 38,
(42,23) --> 64,
(42,24) --> 12,
(42,25) --> 40,
(42,26) --> 75,
(42,27) --> 36,
(42,28) --> 50,
(42,29) --> 53,
(42,30) --> 70,
(42,31) --> 48,
(42,32) --> 44,
(42,33) --> 13,
(42,34) --> 47,
(42,35) --> 19,
(42,36) --> 42,
(42,37) --> 67,
(42,38) --> 60,
(42,39) --> 34,
(42,40) --> 46,
(42,41) --> 45,
(42,42) --> 0,
(42,43) --> 74,
(42,44) --> 42,
(42,45) --> 82,
(43,0) --> 21,
(43,1) --> 91,
(43,2) --> 42,
(43,3) --> 43,
(43,4) --> 19,
(43,5) --> 32,
(43,6) --> 4,
(43,7) --> 52,
(43,8) --> 57,
(43,9) --> 26,
(43,10) --> 61,
(43,11) --> 55,
(43,12) --> 65,
(43,13) --> 11,
(43,14) --> 4,
(43,15) --> 72,
(43,16) --> 83,
(43,17) --> 44,
(43,18) --> 97,
(43,19) --> 54,
(43,20) --> 74,
(43,21) --> 67,
(43,22) --> 45,
(43,23) --> 16,
(43,24) --> 85,
(43,25) --> 79,
(43,26) --> 6,
(43,27) --> 84,
(43,28) --> 41,
(43,29) --> 85,
(43,30) --> 20,
(43,31) --> 87,
(43,32) --> 34,
(43,33) --> 65,
(43,34) --> 96,
(43,35) --> 81,
(43,36) --> 32,
(43,37) --> 47,
(43,38) --> 14,
(43,39) --> 46,
(43,40) --> 100,
(43,41) --> 74,
(43,42) --> 74,
(43,43) --> 0,
(43,44) --> 78,
(43,45) --> 21,
(44,0) --> 74,
(44,1) --> 74,
(44,2) --> 54,
(44,3) --> 36,
(44,4) --> 62,
(44,5) --> 50,
(44,6) --> 82,
(44,7) --> 27,
(44,8) --> 51,
(44,9) --> 81,
(44,10) --> 17,
(44,11) --> 50,
(44,12) --> 28,
(44,13) --> 77,
(44,14) --> 75,
(44,15) --> 62,
(44,16) --> 50,
(44,17) --> 93,
(44,18) --> 20,
(44,19) --> 61,
(44,20) --> 78,
(44,21) --> 96,
(44,22) --> 34,
(44,23) --> 77,
(44,24) --> 51,
(44,25) --> 3,
(44,26) --> 75,
(44,27) --> 78,
(44,28) --> 76,
(44,29) --> 94,
(44,30) --> 63,
(44,31) --> 90,
(44,32) --> 46,
(44,33) --> 50,
(44,34) --> 89,
(44,35) --> 27,
(44,36) --> 52,
(44,37) --> 44,
(44,38) --> 65,
(44,39) --> 35,
(44,40) --> 88,
(44,41) --> 85,
(44,42) --> 42,
(44,43) --> 78,
(44,44) --> 0,
(44,45) --> 94,
(45,0) --> 23,
(45,1) --> 91,
(45,2) --> 63,
(45,3) --> 58,
(45,4) --> 39,
(45,5) --> 45,
(45,6) --> 16,
(45,7) --> 67,
(45,8) --> 63,
(45,9) --> 20,
(45,10) --> 77,
(45,11) --> 61,
(45,12) --> 76,
(45,13) --> 30,
(45,14) --> 21,
(45,15) --> 74,
(45,16) --> 89,
(45,17) --> 31,
(45,18) --> 112,
(45,19) --> 56,
(45,20) --> 71,
(45,21) --> 57,
(45,22) --> 60,
(45,23) --> 18,
(45,24) --> 91,
(45,25) --> 94,
(45,26) --> 27,
(45,27) --> 82,
(45,28) --> 37,
(45,29) --> 79,
(45,30) --> 40,
(45,31) --> 82,
(45,32) --> 48,
(45,33) --> 70,
(45,34) --> 93,
(45,35) --> 92,
(45,36) --> 43,
(45,37) --> 67,
(45,38) --> 30,
(45,39) --> 59,
(45,40) --> 98,
(45,41) --> 69,
(45,42) --> 82,
(45,43) --> 21,
(45,44) --> 94,
(45,45) --> 0)
letting orderWeights be function (
1 --> 12
,
2 --> 26
,
3 --> 1
,
4 --> 20
,
5 --> 2
,
6 --> 13
,
7 --> 20
,
8 --> 7
,
9 --> 10
,
10 --> 15
,
11 --> 7
,
12 --> 24
,
13 --> 10
,
14 --> 12
,
15 --> 23
,
16 --> 13
,
17 --> 19
,
18 --> 9
,
19 --> 12
,
20 --> 6
,
21 --> 9
,
22 --> 22
,
23 --> 18
,
24 --> 19
,
25 --> 20
,
26 --> 24
,
27 --> 10
,
28 --> 4
,
29 --> 20
,
30 --> 15
,
31 --> 13
,
32 --> 12
,
33 --> 3
,
34 --> 7
,
35 --> 18
,
36 --> 3
,
37 --> 23
,
38 --> 1
,
39 --> 17
,
40 --> 13
,
41 --> 6
,
42 --> 22
,
43 --> 20
,
44 --> 21
,
45 --> 2
)
letting vehicleCapacity be 100
